57 95 44 71 26 21 33 77 12 9 48 97 39 50 67 2 18 7 70 1 42 46 25 84 32 35 99 6 30 75 78 92 58 29 0 62 83 89 74 52 53 31 61 59 96 27 19 63 47 13 55 72 85 76 69 43 49 28 88 22 24 68 41 82 37 3 73 98 4 45 34 93 11 20 60 56 91 8 86 15 87 23 10 38 40 90 16 36 79 81 65 66 80 5 64 14 51 94 17 54 

